problems/csplib-prob030/BalancedAcademicCurriculumProblem-models/compact/O2/minion/model-bacp-5-solution000001.solution
language Essence 1.3

letting curr be
        function(1 --> 1, 2 --> 1, 3 --> 1, 4 --> 1, 5 --> 1, 6 --> 1, 7 --> 10, 8 --> 1, 9 --> 9, 10 --> 1, 11 --> 8,
                 12 --> 7, 13 --> 1, 14 --> 7, 15 --> 7, 16 --> 7, 17 --> 2, 18 --> 7, 19 --> 7, 20 --> 6, 21 --> 6,
                 22 --> 6, 23 --> 8, 24 --> 9, 25 --> 5, 26 --> 5, 27 --> 5, 28 --> 5, 29 --> 4, 30 --> 4, 31 --> 4,
                 32 --> 4, 33 --> 4, 34 --> 4, 35 --> 10, 36 --> 3, 37 --> 3, 38 --> 3, 39 --> 3, 40 --> 3, 41 --> 3,
                 42 --> 3, 43 --> 2, 44 --> 2, 45 --> 2, 46 --> 2, 47 --> 2, 48 --> 2, 49 --> 2, 50 --> 1)
