problems/csplib-prob030/BalancedAcademicCurriculumProblem-models/noch/O2/minion/model-bacp-5-solution000001.eprime-solution
language ESSENCE' 1.0

letting curr_Function1D be
        [1, 1, 1, 1, 1, 1, 10, 1, 9, 1, 8, 7, 1, 7, 7, 7, 2, 7, 7, 6, 6, 6, 8, 9, 5, 5, 5, 5, 4, 4, 4, 4, 4, 4, 10, 3,
         3, 3, 3, 3, 3, 3, 2, 2, 2, 2, 2, 2, 2, 1;
             int(1..50)]
